language ESSENCE' 1.0
letting lastdx=102
letting cage be [
[20,16,5,16,4,15,4,15,5,0,0],
[10,8,16,0,0, 0,0, 0,0, 0,0],
[51,4,9,5,9,5,10,5,11,6,11],
[40,16,1,16,2,15,2,15,3,16,3],
[2,5,13,0,0, 0,0, 0,0, 0,0],
[13,12,3,0,0, 0,0, 0,0, 0,0],
[26,11,4,10,4,10,3,0,0, 0,0],
[14,3,16,2,16,0,0, 0,0, 0,0],
[28,7,10,8,10,8,11,0,0, 0,0],
[2,1,7,0,0, 0,0, 0,0, 0,0],
[42,16,8,16,9,16,10,15,10,0,0],
[42,8,5,7,5,6,5,6,6,6,7],
[15,1,4,0,0, 0,0, 0,0, 0,0],
[9,13,8,13,9,0,0, 0,0, 0,0],
[15,14,10,14,9,0,0, 0,0, 0,0],
[53,14,4,13,4,12,4,12,5,12,6],
[36,4,15,3,15,3,14,3,13,0,0],
[13,10,2,10,1,0,0, 0,0, 0,0],
[1,8,3,0,0, 0,0, 0,0, 0,0],
[19,8,4,7,4,6,4,0,0, 0,0],
[29,11,13,10,13,10,14,9,14,0,0],
[9,14,3,0,0, 0,0, 0,0, 0,0],
[7,2,4,0,0, 0,0, 0,0, 0,0],
[45,14,12,15,12,15,11,14,11,0,0],
[13,7,1,0,0, 0,0, 0,0, 0,0],
[22,1,5,2,5,2,6,1,6,0,0],
[2,9,5,0,0, 0,0, 0,0, 0,0],
[54,12,9,12,8,11,8,11,9,0,0],
[2,14,8,0,0, 0,0, 0,0, 0,0],
[14,5,7,0,0, 0,0, 0,0, 0,0],
[29,13,5,14,5,14,6,14,7,0,0],
[12,3,7,0,0, 0,0, 0,0, 0,0],
[9,12,12,12,11,0,0, 0,0, 0,0],
[8,7,2,0,0, 0,0, 0,0, 0,0],
[14,2,8,2,7,0,0, 0,0, 0,0],
[15,8,7,8,6,0,0, 0,0, 0,0],
[15,16,6,0,0, 0,0, 0,0, 0,0],
[19,10,7,11,7,11,6,11,5,0,0],
[8,4,5,0,0, 0,0, 0,0, 0,0],
[25,5,16,4,16,5,15,0,0, 0,0],
[11,9,8,0,0, 0,0, 0,0, 0,0],
[48,12,10,11,10,10,10,10,9,10,8],
[10,4,7,0,0, 0,0, 0,0, 0,0],
[19,15,15,15,14,14,14,0,0, 0,0],
[15,6,2,6,1,0,0, 0,0, 0,0],
[39,15,16,14,16,13,16,0,0, 0,0],
[54,1,10,1,9,1,8,2,9,2,10],
[22,11,14,11,15,11,16,0,0, 0,0],
[13,1,15,1,16,0,0, 0,0, 0,0],
[34,14,2,14,1,15,1,13,1,0,0],
[18,2,14,2,15,1,14,0,0, 0,0],
[4,1,1,0,0, 0,0, 0,0, 0,0],
[22,2,11,3,11,3,10,0,0, 0,0],
[45,15,6,15,7,16,7,15,8,15,9],
[6,3,1,0,0, 0,0, 0,0, 0,0],
[47,10,11,9,11,9,10,9,9,8,9],
[42,10,16,10,15,9,15,9,16,0,0],
[8,7,12,7,11,0,0, 0,0, 0,0],
[20,4,12,4,11,4,10,0,0, 0,0],
[30,1,13,2,13,0,0, 0,0, 0,0],
[12,7,8,8,8,0,0, 0,0, 0,0],
[46,10,5,10,6,9,6,9,7,0,0],
[11,6,16,0,0, 0,0, 0,0, 0,0],
[31,4,2,4,1,5,1,0,0, 0,0],
[1,5,8,0,0, 0,0, 0,0, 0,0],
[15,3,5,0,0, 0,0, 0,0, 0,0],
[11,5,3,5,2,0,0, 0,0, 0,0],
[22,4,13,4,14,0,0, 0,0, 0,0],
[27,3,4,3,3,4,3,0,0, 0,0],
[14,8,2,9,2,0,0, 0,0, 0,0],
[26,4,6,3,6,5,6,0,0, 0,0],
[12,4,4,0,0, 0,0, 0,0, 0,0],
[22,7,6,7,7,0,0, 0,0, 0,0],
[16,1,3,1,2,0,0, 0,0, 0,0],
[7,12,7,0,0, 0,0, 0,0, 0,0],
[3,13,10,0,0, 0,0, 0,0, 0,0],
[22,9,1,8,1,0,0, 0,0, 0,0],
[22,5,5,5,4,0,0, 0,0, 0,0],
[26,5,12,6,12,6,13,0,0, 0,0],
[10,14,15,0,0, 0,0, 0,0, 0,0],
[26,16,16,16,15,16,14,0,0, 0,0],
[3,1,11,0,0, 0,0, 0,0, 0,0],
[30,1,12,2,12,3,12,0,0, 0,0],
[34,2,1,2,2,2,3,3,2,0,0],
[33,3,8,3,9,4,8,0,0, 0,0],
[3,5,14,0,0, 0,0, 0,0, 0,0],
[23,6,3,7,3,0,0, 0,0, 0,0],
[5,6,14,0,0, 0,0, 0,0, 0,0],
[1,6,15,0,0, 0,0, 0,0, 0,0],
[27,7,13,7,14,0,0, 0,0, 0,0],
[40,7,15,7,16,8,15,8,14,0,0],
[18,8,12,9,12,10,12,0,0, 0,0],
[18,8,13,9,13,0,0, 0,0, 0,0],
[7,9,3,9,4,0,0, 0,0, 0,0],
[11,11,1,0,0, 0,0, 0,0, 0,0],
[24,11,2,11,3,0,0, 0,0, 0,0],
[20,11,11,11,12,0,0, 0,0, 0,0],
[30,12,1,12,2,13,2,13,3,0,0],
[11,12,13,0,0, 0,0, 0,0, 0,0],
[26,12,14,13,14,13,13,14,13,0,0],
[28,12,15,12,16,13,15,0,0, 0,0],
[19,13,6,13,7,0,0, 0,0, 0,0],
[14,13,11,13,12,0,0, 0,0, 0,0]
]
